c Random generated cnf formula, satisfiable: true
p cnf 10 50
-5 -8 4 0
-1 -6 -4 0
-8 6 -4 0
-1 -4 9 0
-9 6 -2 0
2 7 -3 0
-7 -1 -9 0
-3 5 -2 0
5 -3 6 0
8 -4 6 0
-4 -8 -9 0
9 -8 -3 0
8 7 -10 0
9 -4 7 0
3 7 -1 0
-5 2 6 0
9 -5 10 0
-8 -7 -6 0
-7 -2 -6 0
9 -7 -1 0
-7 5 -6 0
-3 2 -8 0
9 1 3 0
2 -3 5 0
-6 3 9 0
8 9 10 0
6 9 4 0
-4 -5 -3 0
-3 6 -8 0
-2 -6 10 0
2 -7 3 0
-5 3 -1 0
-10 -5 -8 0
-7 5 8 0
9 6 7 0
7 3 -1 0
5 -8 -2 0
-4 -2 -10 0
-3 4 -1 0
-4 -9 -3 0
-2 -10 -5 0
1 -4 3 0
6 7 -5 0
7 -10 -2 0
2 -5 6 0
-10 -3 -9 0
5 -3 -9 0
7 4 -5 0
-10 3 2 0
-8 3 9 0
